
===== New CPLEX run =====
Instance: /home/yorig/tuner/mpils-tests/instances/miplib/easy/lotsize.mps
Config: /scratch/yorig/mpils-results-grid-ticks-10000/easy/16proc/seed-9/4_lotsize_seed-9_20260425_202405/expansion/config_param_CPXPARAM_Preprocessing_Reduce_0_iter_4.prm
========================

Selected objective sense:  MINIMIZE
Selected objective  name:  R1921
Selected RHS        name:  B
Selected bound      name:  BOUND
Version identifier: 22.1.2.0 | 2024-11-26 | 0edbb82fd
CPXPARAM_Preprocessing_Reduce                    0
CPXPARAM_Threads                                 8
CPXPARAM_Parallel                                1
CPXPARAM_MIP_Cuts_Cliques                        -1
CPXPARAM_Preprocessing_CoeffReduce               3
CPXPARAM_MIP_Strategy_VariableSelect             1
CPXPARAM_MIP_Cuts_FlowCovers                     1
CPXPARAM_MIP_Cuts_GUBCovers                      2
CPXPARAM_MIP_Limits_GomoryCand                   10
CPXPARAM_MIP_Cuts_MIRCut                         2
CPXPARAM_MIP_Cuts_Disjunctive                    2
CPXPARAM_MIP_Limits_AggForCut                    10
CPXPARAM_Emphasis_MIP                            4
CPXPARAM_DetTimeLimit                            10000
Tried aggregator 0 times.
Reduced MIP has 1920 rows, 2985 columns, and 6565 nonzeros.
Reduced MIP has 1195 binaries, 0 generals, 0 SOSs, and 0 indicators.
Presolve time = 0.00 sec. (0.52 ticks)
Probing time = 0.00 sec. (1.73 ticks)
Clique table members: 155.
MIP emphasis: hidden feasible solutions.
MIP search method: dynamic search.
Parallel mode: deterministic, using up to 8 threads.
Root relaxation solution time = 0.01 sec. (9.85 ticks)

        Nodes                                         Cuts/
   Node  Left     Objective  IInf  Best Integer    Best Bound    ItCnt     Gap

      0     0   348385.3466   471                 348385.3466     1479         
      0     0   564993.3596   564                   Cuts: 580     2578         
*     0+    0                       1.39652e+07   564993.3596            95.95%
*     0+    0                       1.39202e+07   564993.3596            95.94%
      0     0   729305.2879   606   1.39202e+07     Cuts: 580     3267   94.76%
      0     0   921116.1600   610   1.39202e+07     Cuts: 580     4023   93.38%
      0     0  1059963.3695   584   1.39202e+07     Cuts: 580     4683   92.39%
      0     0  1137086.1135   562   1.39202e+07     Cuts: 580     5279   91.83%
      0     0  1204208.9666   562   1.39202e+07     Cuts: 580     5894   91.35%
*     0+    0                      2887513.0000  1204208.9666            58.30%
      0     0  1230075.8482   579  2887513.0000     Cuts: 580     6423   57.40%
*     0+    0                      2166300.0000  1230075.8482            43.22%
      0     0  1256470.6755   584  2166300.0000     Cuts: 580     7028   42.00%
      0     0  1275105.3534   590  2166300.0000     Cuts: 580     7574   41.14%
      0     0  1288092.6175   580  2166300.0000     Cuts: 580     8007   40.54%
      0     0  1301458.3222   580  2166300.0000     Cuts: 580     8581   39.92%
      0     0  1311124.2410   576  2166300.0000     Cuts: 580     9114   39.48%
*     0+    0                      2016453.0000  1311124.2410            34.98%
      0     0  1317560.0912   595  2016453.0000     Cuts: 580     9560   34.66%
      0     0  1323937.3058   581  2016453.0000     Cuts: 580    10057   34.34%
*     0+    0                      1938139.0000  1323937.3058            31.69%
      0     0  1329901.8699   573  1938139.0000     Cuts: 580    10457   31.38%
      0     0  1335939.9517   592  1938139.0000     Cuts: 580    10926   31.07%
*     0+    0                      1897347.0000  1335939.9517            29.59%
      0     0  1340817.8708   604  1897347.0000     Cuts: 580    11327   29.33%
      0     0  1344779.7561   607  1897347.0000     Cuts: 580    11826   29.12%
      0     0  1347759.1633   606  1897347.0000     Cuts: 580    12212   28.97%
      0     0  1350022.6775   607  1897347.0000     Cuts: 580    12551   28.85%
      0     0  1353194.7047   596  1897347.0000     Cuts: 515    12886   28.68%
      0     0  1355015.8193   597  1897347.0000     Cuts: 580    13242   28.58%
*     0+    0                      1863176.0000  1355015.8193            27.27%
      0     0  1356033.2148   603  1863176.0000     Cuts: 379    13501   27.22%
      0     0  1357184.5617   592  1863176.0000     Cuts: 306    13823   27.16%
      0     0  1358217.2876   590  1863176.0000     Cuts: 258    14035   27.10%
      0     0  1359550.4734   608  1863176.0000     Cuts: 467    14288   27.03%
      0     0  1360349.6367   604  1863176.0000     Cuts: 243    14480   26.99%
      0     0  1360820.1945   599  1863176.0000     Cuts: 197    14659   26.96%
      0     0  1361274.4143   602  1863176.0000     Cuts: 227    14817   26.94%
      0     0  1365313.8901   605  1863176.0000     Cuts: 310    15146   26.72%
      0     0  1368865.3806   587  1863176.0000     Cuts: 580    15483   26.53%
      0     0  1370596.7132   623  1863176.0000     Cuts: 497    15798   26.44%
      0     0  1371848.9626   611  1863176.0000     Cuts: 358    16093   26.37%
      0     0  1373133.1408   611  1863176.0000     Cuts: 306    16324   26.30%
      0     0  1373801.1322   601  1863176.0000     Cuts: 396    16525   26.27%
      0     0  1374572.1547   607  1863176.0000     Cuts: 377    16754   26.22%
      0     0  1374950.5059   607  1863176.0000     Cuts: 249    16915   26.20%
      0     0  1375251.1723   600  1863176.0000     Cuts: 162    17046   26.19%
*     0+    0                      1552029.0000  1375251.1723            11.39%

GUB cover cuts applied:  0
Cover cuts applied:  5
Implied bound cuts applied:  1
Flow cuts applied:  520
Mixed integer rounding cuts applied:  842
Flow path cuts applied:  36
Multi commodity flow cuts applied:  6
Gomory fractional cuts applied:  1
Disjunctive cuts applied:  0
Cone linearizations applied:  0

Root node processing (before b&c):
  Real time             =    6.97 sec. (10003.79 ticks)
Parallel b&c, 8 threads:
  Real time             =    0.00 sec. (0.00 ticks)
  Sync time (average)   =    0.00 sec.
  Wait time (average)   =    0.00 sec.
                          ------------
Total (root+branch&cut) =    6.97 sec. (10003.79 ticks)
Gap: 11.39%
Upper bound: 1.55203e+06
Lower bound: 1.37525e+06
End of CPLEX run. Time: 6.97271 seconds
